12,7	0,0	5,6	15,2	0,0	0,0	0,0	0,0	0,0	9,1
5,6	15,3	0,0	5,8	8,4	0,0	0,0	19,2	0,0	0,0
0,0	0,0	6,0	0,0	17,0	10,4	0,0	0,0	7,1	0,0
12,4	0,0	17,7	0,0	0,0	0,0	13,7	0,0	0,0	0,0
0,0	10,3	0,0	14,5	14,5	0,0	0,0	15,6	0,0	0,0
0,0	6,2	18,1	0,0	6,0	12,7	0,0	0,0	18,6	0,0
0,0	12,7	0,0	12,6	0,0	0,0	7,4	0,0	0,0	7,8
6,6	0,0	8,9	0,0	0,0	0,0	0,0	0,0	0,0	13,5
0,0	16,3	0,0	11,4	12,3	0,0	0,0	10,1	0,0	0,0
0,0	0,0	5,4	0,0	0,0	12,4	6,9	0,0	0,0	14,1
									
4,1	3,3	2,6	3,4	3,8	2,8	4,7	2,8	3,0	3,3
